\ This file was automatically generated by Zimpl
\ var w1 >= 0;
\ var w2 >= 0;
\ minimize Z :      3*w1 + 3*w2;
\ subto r1:     1*w1 + 1*w2 >= 1;
\ subto r2:     -2*w1 + 1*w2 >= 2;
\Problem name: .\pd.zpl
Minimize
 Z:  +3 w1 +3 w2
Subject to
 r1_1:
  + w2 + w1 >= 1
 r2_1:
  + w2 -2 w1 >= 2
Bounds
 0 <= w1 <= +inf
 0 <= w2 <= +inf
End
